50
18486

493 944
594 719
723 429
333 549
383 332
759 14
266 146
839 305
991 884
884 363
64 906
374 749
829 842
17 329
777 414
747 173
440 417
679 60
375 128
677 399
752 767
802 510
792 892
528 232
922 37
419 762
522 529
320 505
612 40
172 55
597 912
947 105
992 163
464 402
566 215
323 962
887 829
526 865
439 731
749 338
760 88
647 684
151 302
797 709
127 597
430 496
730 526
430 805
476 865
927 565
